p cnf 386 460
-18 1 5 21 22 0
-18 1 5 21 -22 0
-18 1 5 -21 23 0
-18 1 5 -21 -23 0
-6 12 11 24 25 0
-6 12 11 24 -25 0
-6 12 11 -24 26 0
-6 12 11 -24 -26 0
-13 -18 -20 27 28 0
-13 -18 -20 27 -28 0
-13 -18 -20 -27 29 0
-13 -18 -20 -27 -29 0
-12 11 7 30 31 0
-12 11 7 30 -31 0
-12 11 7 -30 32 0
-12 11 7 -30 -32 0
-7 -2 -1 33 34 0
-7 -2 -1 33 -34 0
-7 -2 -1 -33 35 0
-7 -2 -1 -33 -35 0
13 -15 3 36 37 0
13 -15 3 36 -37 0
13 -15 3 -36 38 0
13 -15 3 -36 -38 0
-11 20 -6 39 40 0
-11 20 -6 39 -40 0
-11 20 -6 -39 41 0
-11 20 -6 -39 -41 0
4 -18 -19 42 43 0
4 -18 -19 42 -43 0
4 -18 -19 -42 44 0
4 -18 -19 -42 -44 0
13 -5 20 45 46 0
13 -5 20 45 -46 0
13 -5 20 -45 47 0
13 -5 20 -45 -47 0
12 14 10 48 49 0
12 14 10 48 -49 0
12 14 10 -48 50 0
12 14 10 -48 -50 0
20 1 -10 51 52 0
20 1 -10 51 -52 0
20 1 -10 -51 53 0
20 1 -10 -51 -53 0
16 11 -20 54 55 0
16 11 -20 54 -55 0
16 11 -20 -54 56 0
16 11 -20 -54 -56 0
-20 7 -18 57 58 0
-20 7 -18 57 -58 0
-20 7 -18 -57 59 0
-20 7 -18 -57 -59 0
10 20 17 60 61 0
10 20 17 60 -61 0
10 20 17 -60 62 0
10 20 17 -60 -62 0
19 17 1 63 64 0
19 17 1 63 -64 0
19 17 1 -63 65 0
19 17 1 -63 -65 0
15 3 8 66 67 0
15 3 8 66 -67 0
15 3 8 -66 68 0
15 3 8 -66 -68 0
4 3 20 69 70 0
4 3 20 69 -70 0
4 3 20 -69 71 0
4 3 20 -69 -71 0
3 -8 -1 72 73 0
3 -8 -1 72 -73 0
3 -8 -1 -72 74 0
3 -8 -1 -72 -74 0
-10 -14 -8 75 76 0
-10 -14 -8 75 -76 0
-10 -14 -8 -75 77 0
-10 -14 -8 -75 -77 0
18 -14 16 78 79 0
18 -14 16 78 -79 0
18 -14 16 -78 80 0
18 -14 16 -78 -80 0
20 -11 5 81 82 0
20 -11 5 81 -82 0
20 -11 5 -81 83 0
20 -11 5 -81 -83 0
-10 -18 -11 84 85 0
-10 -18 -11 84 -85 0
-10 -18 -11 -84 86 0
-10 -18 -11 -84 -86 0
-17 7 14 87 88 0
-17 7 14 87 -88 0
-17 7 14 -87 89 0
-17 7 14 -87 -89 0
7 14 12 90 91 0
7 14 12 90 -91 0
7 14 12 -90 92 0
7 14 12 -90 -92 0
5 10 3 93 94 0
5 10 3 93 -94 0
5 10 3 -93 95 0
5 10 3 -93 -95 0
-19 14 -9 96 97 0
-19 14 -9 96 -97 0
-19 14 -9 -96 98 0
-19 14 -9 -96 -98 0
-16 12 13 99 100 0
-16 12 13 99 -100 0
-16 12 13 -99 101 0
-16 12 13 -99 -101 0
1 19 -6 102 103 0
1 19 -6 102 -103 0
1 19 -6 -102 104 0
1 19 -6 -102 -104 0
15 18 -6 105 106 0
15 18 -6 105 -106 0
15 18 -6 -105 107 0
15 18 -6 -105 -107 0
-11 -13 -18 108 109 0
-11 -13 -18 108 -109 0
-11 -13 -18 -108 110 0
-11 -13 -18 -108 -110 0
-13 4 14 111 112 0
-13 4 14 111 -112 0
-13 4 14 -111 113 0
-13 4 14 -111 -113 0
-6 15 3 114 115 0
-6 15 3 114 -115 0
-6 15 3 -114 116 0
-6 15 3 -114 -116 0
-10 9 -4 117 118 0
-10 9 -4 117 -118 0
-10 9 -4 -117 119 0
-10 9 -4 -117 -119 0
-12 19 -3 120 121 0
-12 19 -3 120 -121 0
-12 19 -3 -120 122 0
-12 19 -3 -120 -122 0
8 -11 6 123 124 0
8 -11 6 123 -124 0
8 -11 6 -123 125 0
8 -11 6 -123 -125 0
-2 4 16 126 127 0
-2 4 16 126 -127 0
-2 4 16 -126 128 0
-2 4 16 -126 -128 0
-4 20 6 129 130 0
-4 20 6 129 -130 0
-4 20 6 -129 131 0
-4 20 6 -129 -131 0
-5 -12 -13 132 133 0
-5 -12 -13 132 -133 0
-5 -12 -13 -132 134 0
-5 -12 -13 -132 -134 0
10 -11 14 135 136 0
10 -11 14 135 -136 0
10 -11 14 -135 137 0
10 -11 14 -135 -137 0
-15 -2 -13 138 139 0
-15 -2 -13 138 -139 0
-15 -2 -13 -138 140 0
-15 -2 -13 -138 -140 0
-2 16 17 141 142 0
-2 16 17 141 -142 0
-2 16 17 -141 143 0
-2 16 17 -141 -143 0
-17 1 -6 144 145 0
-17 1 -6 144 -145 0
-17 1 -6 -144 146 0
-17 1 -6 -144 -146 0
15 -8 13 147 148 0
15 -8 13 147 -148 0
15 -8 13 -147 149 0
15 -8 13 -147 -149 0
17 -11 9 150 151 0
17 -11 9 150 -151 0
17 -11 9 -150 152 0
17 -11 9 -150 -152 0
-8 10 3 153 154 0
-8 10 3 153 -154 0
-8 10 3 -153 155 0
-8 10 3 -153 -155 0
15 -18 2 156 157 0
15 -18 2 156 -157 0
15 -18 2 -156 158 0
15 -18 2 -156 -158 0
-4 19 8 159 160 0
-4 19 8 159 -160 0
-4 19 8 -159 161 0
-4 19 8 -159 -161 0
9 16 10 162 163 0
9 16 10 162 -163 0
9 16 10 -162 164 0
9 16 10 -162 -164 0
-5 18 -17 165 166 0
-5 18 -17 165 -166 0
-5 18 -17 -165 167 0
-5 18 -17 -165 -167 0
-17 -12 3 168 169 0
-17 -12 3 168 -169 0
-17 -12 3 -168 170 0
-17 -12 3 -168 -170 0
4 -6 -2 171 172 0
4 -6 -2 171 -172 0
4 -6 -2 -171 173 0
4 -6 -2 -171 -173 0
-7 -17 -19 174 175 0
-7 -17 -19 174 -175 0
-7 -17 -19 -174 176 0
-7 -17 -19 -174 -176 0
16 -20 -5 177 178 0
16 -20 -5 177 -178 0
16 -20 -5 -177 179 0
16 -20 -5 -177 -179 0
-6 -15 8 180 181 0
-6 -15 8 180 -181 0
-6 -15 8 -180 182 0
-6 -15 8 -180 -182 0
-15 11 4 183 184 0
-15 11 4 183 -184 0
-15 11 4 -183 185 0
-15 11 4 -183 -185 0
18 8 10 186 187 0
18 8 10 186 -187 0
18 8 10 -186 188 0
18 8 10 -186 -188 0
9 18 8 189 190 0
9 18 8 189 -190 0
9 18 8 -189 191 0
9 18 8 -189 -191 0
17 -9 -3 192 193 0
17 -9 -3 192 -193 0
17 -9 -3 -192 194 0
17 -9 -3 -192 -194 0
-13 -16 -15 195 196 0
-13 -16 -15 195 -196 0
-13 -16 -15 -195 197 0
-13 -16 -15 -195 -197 0
1 10 4 198 199 0
1 10 4 198 -199 0
1 10 4 -198 200 0
1 10 4 -198 -200 0
13 1 -14 201 202 0
13 1 -14 201 -202 0
13 1 -14 -201 203 0
13 1 -14 -201 -203 0
-12 20 13 204 205 0
-12 20 13 204 -205 0
-12 20 13 -204 206 0
-12 20 13 -204 -206 0
-9 10 12 207 208 0
-9 10 12 207 -208 0
-9 10 12 -207 209 0
-9 10 12 -207 -209 0
15 -4 3 210 211 0
15 -4 3 210 -211 0
15 -4 3 -210 212 0
15 -4 3 -210 -212 0
18 1 9 213 214 0
18 1 9 213 -214 0
18 1 9 -213 215 0
18 1 9 -213 -215 0
1 -20 -3 216 217 0
1 -20 -3 216 -217 0
1 -20 -3 -216 218 0
1 -20 -3 -216 -218 0
15 5 14 219 220 0
15 5 14 219 -220 0
15 5 14 -219 221 0
15 5 14 -219 -221 0
18 -13 -10 222 223 0
18 -13 -10 222 -223 0
18 -13 -10 -222 224 0
18 -13 -10 -222 -224 0
-12 -6 -3 225 226 0
-12 -6 -3 225 -226 0
-12 -6 -3 -225 227 0
-12 -6 -3 -225 -227 0
18 -12 1 228 229 0
18 -12 1 228 -229 0
18 -12 1 -228 230 0
18 -12 1 -228 -230 0
-8 -13 -7 231 232 0
-8 -13 -7 231 -232 0
-8 -13 -7 -231 233 0
-8 -13 -7 -231 -233 0
-5 11 -18 234 235 0
-5 11 -18 234 -235 0
-5 11 -18 -234 236 0
-5 11 -18 -234 -236 0
16 -2 8 237 238 0
16 -2 8 237 -238 0
16 -2 8 -237 239 0
16 -2 8 -237 -239 0
15 -19 8 240 241 0
15 -19 8 240 -241 0
15 -19 8 -240 242 0
15 -19 8 -240 -242 0
-7 -4 -8 243 244 0
-7 -4 -8 243 -244 0
-7 -4 -8 -243 245 0
-7 -4 -8 -243 -245 0
-1 9 -20 246 247 0
-1 9 -20 246 -247 0
-1 9 -20 -246 248 0
-1 9 -20 -246 -248 0
-15 -16 -4 249 250 0
-15 -16 -4 249 -250 0
-15 -16 -4 -249 251 0
-15 -16 -4 -249 -251 0
-11 -10 15 252 253 0
-11 -10 15 252 -253 0
-11 -10 15 -252 254 0
-11 -10 15 -252 -254 0
-4 -8 -6 255 256 0
-4 -8 -6 255 -256 0
-4 -8 -6 -255 257 0
-4 -8 -6 -255 -257 0
19 -3 -1 258 259 0
19 -3 -1 258 -259 0
19 -3 -1 -258 260 0
19 -3 -1 -258 -260 0
-20 17 5 261 262 0
-20 17 5 261 -262 0
-20 17 5 -261 263 0
-20 17 5 -261 -263 0
19 -2 -5 264 265 0
19 -2 -5 264 -265 0
19 -2 -5 -264 266 0
19 -2 -5 -264 -266 0
16 6 8 267 268 0
16 6 8 267 -268 0
16 6 8 -267 269 0
16 6 8 -267 -269 0
-17 8 -3 270 271 0
-17 8 -3 270 -271 0
-17 8 -3 -270 272 0
-17 8 -3 -270 -272 0
19 7 -20 273 274 0
19 7 -20 273 -274 0
19 7 -20 -273 275 0
19 7 -20 -273 -275 0
4 20 3 276 277 0
4 20 3 276 -277 0
4 20 3 -276 278 0
4 20 3 -276 -278 0
8 -14 -4 279 280 0
8 -14 -4 279 -280 0
8 -14 -4 -279 281 0
8 -14 -4 -279 -281 0
9 20 -12 282 283 0
9 20 -12 282 -283 0
9 20 -12 -282 284 0
9 20 -12 -282 -284 0
-9 8 -19 285 286 0
-9 8 -19 285 -286 0
-9 8 -19 -285 287 0
-9 8 -19 -285 -287 0
20 7 1 288 289 0
20 7 1 288 -289 0
20 7 1 -288 290 0
20 7 1 -288 -290 0
-2 7 -8 291 292 0
-2 7 -8 291 -292 0
-2 7 -8 -291 293 0
-2 7 -8 -291 -293 0
294 295 297 301 309 0
294 295 297 301 -309 0
294 295 297 -301 310 0
294 295 297 -301 -310 0
294 295 -297 302 311 0
294 295 -297 302 -311 0
294 295 -297 -302 312 0
294 295 -297 -302 -312 0
294 -295 298 303 313 0
294 -295 298 303 -313 0
294 -295 298 -303 314 0
294 -295 298 -303 -314 0
294 -295 -298 304 315 0
294 -295 -298 304 -315 0
294 -295 -298 -304 316 0
294 -295 -298 -304 -316 0
-294 296 299 305 317 0
-294 296 299 305 -317 0
-294 296 299 -305 318 0
-294 296 299 -305 -318 0
-294 296 -299 306 319 0
-294 296 -299 306 -319 0
-294 296 -299 -306 320 0
-294 296 -299 -306 -320 0
-294 -296 300 307 321 0
-294 -296 300 307 -321 0
-294 -296 300 -307 322 0
-294 -296 300 -307 -322 0
-294 -296 -300 308 323 0
-294 -296 -300 308 -323 0
-294 -296 -300 -308 324 0
-294 -296 -300 -308 -324 0
325 326 328 332 340 0
325 326 328 332 -340 0
325 326 328 -332 341 0
325 326 328 -332 -341 0
325 326 -328 333 342 0
325 326 -328 333 -342 0
325 326 -328 -333 343 0
325 326 -328 -333 -343 0
325 -326 329 334 344 0
325 -326 329 334 -344 0
325 -326 329 -334 345 0
325 -326 329 -334 -345 0
325 -326 -329 335 346 0
325 -326 -329 335 -346 0
325 -326 -329 -335 347 0
325 -326 -329 -335 -347 0
-325 327 330 336 348 0
-325 327 330 336 -348 0
-325 327 330 -336 349 0
-325 327 330 -336 -349 0
-325 327 -330 337 350 0
-325 327 -330 337 -350 0
-325 327 -330 -337 351 0
-325 327 -330 -337 -351 0
-325 -327 331 338 352 0
-325 -327 331 338 -352 0
-325 -327 331 -338 353 0
-325 -327 331 -338 -353 0
-325 -327 -331 339 354 0
-325 -327 -331 339 -354 0
-325 -327 -331 -339 355 0
-325 -327 -331 -339 -355 0
356 357 359 363 371 0
356 357 359 363 -371 0
356 357 359 -363 372 0
356 357 359 -363 -372 0
356 357 -359 364 373 0
356 357 -359 364 -373 0
356 357 -359 -364 374 0
356 357 -359 -364 -374 0
356 -357 360 365 375 0
356 -357 360 365 -375 0
356 -357 360 -365 376 0
356 -357 360 -365 -376 0
356 -357 -360 366 377 0
356 -357 -360 366 -377 0
356 -357 -360 -366 378 0
356 -357 -360 -366 -378 0
-356 358 361 367 379 0
-356 358 361 367 -379 0
-356 358 361 -367 380 0
-356 358 361 -367 -380 0
-356 358 -361 368 381 0
-356 358 -361 368 -381 0
-356 358 -361 -368 382 0
-356 358 -361 -368 -382 0
-356 -358 362 369 383 0
-356 -358 362 369 -383 0
-356 -358 362 -369 384 0
-356 -358 362 -369 -384 0
-356 -358 -362 370 385 0
-356 -358 -362 370 -385 0
-356 -358 -362 -370 386 0
-356 -358 -362 -370 -386 0

